249 250 251 252 254 253 255 256 257 300 299 258 259 260 261 262 263 264 265 266 298 297 267 271 272 269 268 270 296 295 294 293 291 292 273 274 275 290 289 288 276 277 278 279 282 281 280 287 286 285 284 283 334 335 336 337 338 339 333 332 331 330 340 341 342 343 344 345 346 364 363 361 362 347 348 349 350 351 352 415 416 414 413 417 419 420 421 422 423 424 425 426 427 428 429 431 430 432 433 434 435 436 437 438 454 455 456 457 458 459 460 463 462 461 452 453 439 440 441 449 448 447 446 442 443 444 445 381 390 392 393 391 389 388 387 386 382 385 383 384 410 418 411 412 356 355 353 354 357 358 359 360 401 402 403 400 404 405 409 408 407 406 399 398 397 394 395 396 371 372 370 369 368 365 367 366 329 328 327 326 325 324 323 322 373 374 375 376 379 380 378 377 315 314 316 313 312 450 451 311 310 309 308 505 504 503 502 501 500 499 498 497 464 465 496 519 518 495 494 524 525 526 523 522 521 520 517 516 515 514 513 512 527 528 529 490 491 492 493 486 487 535 534 488 489 533 532 531 530 234 235 236 232 233 231 230 229 228 227 189 225 226 190 191 192 193 194 195 196 197 184 185 183 181 179 180 169 171 170 172 109 108 173 174 175 176 177 178 182 186 188 187 540 538 539 537 536 484 485 483 482 481 480 479 478 477 476 475 567 27 26 25 24 21 20 19 568 569 570 474 473 472 471 470 469 468 467 466 571 572 573 0 1 2 3 4 5 6 7 9 8 17 18 16 10 11 15 14 13 12 23 22 28 29 31 30 32 36 37 38 35 33 34 558 559 550 560 561 562 563 565 566 564 549 548 551 101 102 100 99 98 97 96 95 94 93 92 91 555 554 553 552 556 557 41 40 39 42 43 44 45 46 47 48 49 54 53 55 56 83 82 52 50 51 84 85 86 87 90 89 88 79 80 81 57 58 59 60 61 63 62 78 77 76 64 67 66 65 72 75 74 73 119 118 120 121 122 123 71 70 68 69 124 125 126 127 128 129 137 138 139 140 141 136 135 134 133 132 130 131 113 112 114 115 116 117 106 105 104 103 547 546 545 544 543 541 542 107 110 111 168 162 161 160 158 145 144 143 142 151 150 149 152 148 147 146 153 157 159 156 155 154 163 167 166 164 165 203 204 202 201 200 199 198 205 206 207 208 209 210 211 212 213 214 215 216 217 218 219 220 221 222 224 223 246 247 245 244 243 239 238 240 237 511 510 509 506 507 508 307 305 318 317 321 320 319 306 304 303 302 301 241 242 248